TCS_Benchmarks/redos_fix/snort1_output_distinct_3141_3140_0_0.txt
[^\n\r]*
([^\n\r]*)([fF][lL][tT][rR]\[\]=)([^\n\r&]+)
[^\n\r&]+